
Gurobi 6.0.0 (linux64) logging started Mon Apr 13 21:39:52 2015

Optimize a model with 2 rows, 1001 columns and 2001 nonzeros
Model has 1 quadratic objective term
Coefficient statistics:
  Matrix range    [4e-07, 1e+00]
  Objective range [3e-18, 6e+00]
  Bounds range    [1e+04, 1e+04]
  RHS range       [1e+00, 1e+00]
Presolve time: 0.01s
Presolved: 2 rows, 1001 columns, 2001 nonzeros
Presolved model has 1 quadratic objective terms
Ordering time: 0.00s

Barrier statistics:
 AA' NZ     : 1.000e+00
 Factor NZ  : 3.000e+00
 Factor Ops : 5.000e+00 (less than 1 second per iteration)
 Threads    : 1

                  Objective                Residual
Iter       Primal          Dual         Primal    Dual     Compl     Time
   0  -9.34150924e+04 -5.51049172e+08  1.00e+06 6.22e+00  1.55e+06     0s
   1  -2.32758375e+02 -5.58454272e+05  1.00e+03 0.00e+00  1.56e+03     0s
   2  -2.26108551e-01 -1.56566209e+03  1.84e-02 0.00e+00  1.58e+00     0s
   3  -2.22839355e-01 -1.09043922e+01  1.21e-04 0.00e+00  1.07e-02     0s
   4  -1.24638939e+00 -7.86118317e+00  1.21e-10 1.46e-11  6.60e-03     0s
   5  -4.97852516e+00 -6.96443558e+00  1.11e-15 3.33e-15  1.98e-03     0s
   6  -6.04994583e+00 -6.18678474e+00  7.28e-12 2.22e-15  1.37e-04     0s
   7  -6.13380241e+00 -6.14074707e+00  5.02e-14 2.44e-15  6.93e-06     0s
   8  -6.14068794e+00 -6.14069366e+00  5.33e-15 3.05e-15  7.21e-09     0s
   9  -6.14069366e+00 -6.14069176e+00  9.10e-15 2.91e-15  7.21e-12     0s

Barrier solved model in 9 iterations and 0.04 seconds
Optimal objective -6.14069366e+00


Gurobi 6.0.0 (linux64) logging started Mon Apr 13 21:40:43 2015

Optimize a model with 2 rows, 1001 columns and 2001 nonzeros
Model has 1 quadratic objective term
Coefficient statistics:
  Matrix range    [4e-07, 1e+00]
  Objective range [3e-18, 6e+00]
  Bounds range    [1e+04, 1e+04]
  RHS range       [1e+00, 1e+00]
Presolve time: 0.00s
Presolved: 2 rows, 1001 columns, 2001 nonzeros
Presolved model has 1 quadratic objective terms
Ordering time: 0.00s

Barrier statistics:
 AA' NZ     : 1.000e+00
 Factor NZ  : 3.000e+00
 Factor Ops : 5.000e+00 (less than 1 second per iteration)
 Threads    : 1

                  Objective                Residual
Iter       Primal          Dual         Primal    Dual     Compl     Time
   0  -9.34150924e+04 -5.51049172e+08  1.00e+06 6.22e+00  1.55e+06     0s
   1  -2.32758375e+02 -5.58454272e+05  1.00e+03 0.00e+00  1.56e+03     0s
   2  -2.26108551e-01 -1.56566209e+03  1.84e-02 0.00e+00  1.58e+00     0s
   3  -2.22839355e-01 -1.09043922e+01  1.21e-04 0.00e+00  1.07e-02     0s
   4  -1.24638939e+00 -7.86118317e+00  1.21e-10 1.46e-11  6.60e-03     0s
   5  -4.97852516e+00 -6.96443558e+00  1.11e-15 3.33e-15  1.98e-03     0s
   6  -6.04994583e+00 -6.18678474e+00  7.28e-12 2.22e-15  1.37e-04     0s
   7  -6.13380241e+00 -6.14074707e+00  5.02e-14 2.44e-15  6.93e-06     0s
   8  -6.14068794e+00 -6.14069366e+00  5.33e-15 3.05e-15  7.21e-09     0s
   9  -6.14069366e+00 -6.14069176e+00  9.10e-15 2.91e-15  7.21e-12     0s

Barrier solved model in 9 iterations and 0.02 seconds
Optimal objective -6.14069366e+00


Gurobi 6.0.0 (linux64) logging started Mon Apr 13 21:41:27 2015

Optimize a model with 2 rows, 1001 columns and 2001 nonzeros
Model has 1 quadratic objective term
Coefficient statistics:
  Matrix range    [4e-07, 1e+00]
  Objective range [3e-18, 6e+00]
  Bounds range    [1e+04, 1e+04]
  RHS range       [1e+00, 1e+00]
Presolve time: 0.01s
Presolved: 2 rows, 1001 columns, 2001 nonzeros
Presolved model has 1 quadratic objective terms
Ordering time: 0.00s

Barrier statistics:
 AA' NZ     : 1.000e+00
 Factor NZ  : 3.000e+00
 Factor Ops : 5.000e+00 (less than 1 second per iteration)
 Threads    : 1

                  Objective                Residual
Iter       Primal          Dual         Primal    Dual     Compl     Time
   0  -9.34150924e+04 -5.51049172e+08  1.00e+06 6.22e+00  1.55e+06     0s
   1  -2.32758375e+02 -5.58454272e+05  1.00e+03 0.00e+00  1.56e+03     0s
   2  -2.26108551e-01 -1.56566209e+03  1.84e-02 0.00e+00  1.58e+00     0s
   3  -2.22839355e-01 -1.09043922e+01  1.21e-04 0.00e+00  1.07e-02     0s
   4  -1.24638939e+00 -7.86118317e+00  1.21e-10 1.46e-11  6.60e-03     0s
   5  -4.97852516e+00 -6.96443558e+00  1.11e-15 3.33e-15  1.98e-03     0s
   6  -6.04994583e+00 -6.18678474e+00  7.28e-12 2.22e-15  1.37e-04     0s
   7  -6.13380241e+00 -6.14074707e+00  5.02e-14 2.44e-15  6.93e-06     0s
   8  -6.14068794e+00 -6.14069366e+00  5.33e-15 3.05e-15  7.21e-09     0s
   9  -6.14069366e+00 -6.14069176e+00  9.10e-15 2.91e-15  7.21e-12     0s

Barrier solved model in 9 iterations and 0.03 seconds
Optimal objective -6.14069366e+00


Gurobi 6.0.0 (linux64) logging started Mon Apr 13 21:41:45 2015

Optimize a model with 2 rows, 1001 columns and 2001 nonzeros
Model has 1 quadratic objective term
Coefficient statistics:
  Matrix range    [4e-08, 1e+00]
  Objective range [3e-18, 6e+00]
  Bounds range    [1e+04, 1e+04]
  RHS range       [1e+00, 1e+00]
Presolve removed 0 rows and 1 columns
Presolve time: 0.01s
Presolved: 2 rows, 1000 columns, 1999 nonzeros
Presolved model has 1 quadratic objective terms
Ordering time: 0.00s

Barrier statistics:
 AA' NZ     : 1.000e+00
 Factor NZ  : 3.000e+00
 Factor Ops : 5.000e+00 (less than 1 second per iteration)
 Threads    : 1

                  Objective                Residual
Iter       Primal          Dual         Primal    Dual     Compl     Time
   0  -9.34113866e+04 -5.51046804e+08  9.99e+05 6.22e+00  1.55e+06     0s
   1  -2.32758886e+02 -5.58452943e+05  1.00e+03 0.00e+00  1.56e+03     0s
   2  -2.26043701e-01 -1.56522519e+03  1.76e-02 1.46e-11  1.58e+00     0s
   3  -2.22959518e-01 -1.09167099e+01  1.17e-04 0.00e+00  1.07e-02     0s
   4  -1.24737740e+00 -7.86956215e+00  1.17e-10 0.00e+00  6.62e-03     0s
   5  -4.96771240e+00 -6.94750023e+00  8.88e-16 1.46e-11  1.98e-03     0s
   6  -6.04922295e+00 -6.18607330e+00  2.22e-16 3.39e-15  1.37e-04     0s
   7  -6.13379860e+00 -6.14058876e+00  8.39e-14 2.22e-15  6.78e-06     0s
   8  -6.14053154e+00 -6.14053726e+00  1.64e-14 2.20e-15  7.04e-09     0s
   9  -6.14053726e+00 -6.14053535e+00  5.55e-15 3.10e-15  7.04e-12     0s

Barrier solved model in 9 iterations and 0.02 seconds
Optimal objective -6.14053726e+00

